
Gurobi 12.0.2 (linux64, C++) logging started Thu Jun 19 08:00:19 2025

Set parameter LogFile to value "log/instances/scenario4/not_correlated_sc4/300/kpfs_6.txt.log"

Gurobi 12.0.2 (linux64, C++) logging started Thu Jun 19 08:01:42 2025

Set parameter LogFile to value "log/instances/scenario4/not_correlated_sc4/300/kpfs_6.txt.log"

Gurobi 12.0.2 (linux64, C++) logging started Thu Jun 19 08:02:53 2025

Set parameter LogFile to value "log/instances/scenario4/not_correlated_sc4/300/kpfs_6.txt.log"

Gurobi 12.0.2 (linux64, C++) logging started Thu Jun 19 08:03:57 2025

Set parameter LogFile to value "log/instances/scenario4/not_correlated_sc4/300/kpfs_6.txt.log"

Gurobi 12.0.2 (linux64, C++) logging started Thu Jun 19 12:38:42 2025

Set parameter WLSAccessID
Set parameter WLSSecret
Set parameter LicenseID to value 2679381
Set parameter LogFile to value "log/instances/scenario4/not_correlated_sc4/300/kpfs_6.txt.log"
Academic license 2679381 - for non-commercial use only - registered to be___@poli.ufrj.br
Set parameter TimeLimit to value 1800
Set parameter Threads to value 1
Gurobi Optimizer version 12.0.2 build v12.0.2rc0 (linux64 - "Ubuntu 24.04.1 LTS")

CPU model: 13th Gen Intel(R) Core(TM) i7-1355U, instruction set [SSE2|AVX|AVX2]
Thread count: 6 physical cores, 12 logical processors, using up to 1 threads

Non-default parameters:
TimeLimit  1800
Threads  1

Academic license 2679381 - for non-commercial use only - registered to be___@poli.ufrj.br
Optimize a model with 902 rows, 1200 columns and 9480 nonzeros
Model fingerprint: 0xe855e9a1
Variable types: 0 continuous, 1200 integer (300 binary)
Coefficient statistics:
  Matrix range     [1e+00, 3e+01]
  Objective range  [1e+00, 3e+01]
  Bounds range     [1e+00, 1e+01]
  RHS range        [1e+00, 5e+02]
Found heuristic solution: objective 514.0000000
Presolve removed 0 rows and 80 columns
Presolve time: 0.15s
Presolved: 902 rows, 1120 columns, 9320 nonzeros
Variable types: 0 continuous, 1120 integer (346 binary)

Root relaxation: objective 1.009594e+03, 467 iterations, 0.06 seconds (0.02 work units)

    Nodes    |    Current Node    |     Objective Bounds      |     Work
 Expl Unexpl |  Obj  Depth IntInf | Incumbent    BestBd   Gap | It/Node Time

     0     0 1009.59437    0  111  514.00000 1009.59437  96.4%     -    0s
H    0     0                     853.0000000 1009.59437  18.4%     -    0s
H    0     0                     891.0000000 1009.59437  13.3%     -    0s
H    0     0                     955.0000000 1009.59437  5.72%     -    0s
H    0     0                     971.0000000 1009.59437  3.97%     -    0s
     0     0 1006.95778    0  117  971.00000 1006.95778  3.70%     -    0s
     0     0 1006.90430    0  116  971.00000 1006.90430  3.70%     -    0s
     0     0 1005.16135    0  120  971.00000 1005.16135  3.52%     -    1s
     0     0 1005.11004    0  124  971.00000 1005.11004  3.51%     -    1s
     0     0 1004.74852    0  122  971.00000 1004.74852  3.48%     -    1s
     0     0 1004.72193    0  128  971.00000 1004.72193  3.47%     -    1s
     0     0 1004.71264    0  126  971.00000 1004.71264  3.47%     -    1s
     0     0 1004.16553    0  129  971.00000 1004.16553  3.42%     -    1s
     0     0 1004.12097    0  124  971.00000 1004.12097  3.41%     -    1s
     0     0 1004.12097    0  126  971.00000 1004.12097  3.41%     -    1s
     0     0 1003.86993    0  126  971.00000 1003.86993  3.39%     -    1s
     0     0 1003.85537    0  123  971.00000 1003.85537  3.38%     -    1s
     0     0 1003.85341    0  125  971.00000 1003.85341  3.38%     -    1s
     0     0 1003.84234    0  129  971.00000 1003.84234  3.38%     -    1s
     0     0 1003.78320    0  127  971.00000 1003.78320  3.38%     -    1s
     0     0 1003.78320    0  128  971.00000 1003.78320  3.38%     -    1s
     0     0 1003.75363    0  126  971.00000 1003.75363  3.37%     -    1s
     0     0 1003.75128    0  127  971.00000 1003.75128  3.37%     -    2s
     0     0 1003.73556    0  127  971.00000 1003.73556  3.37%     -    2s
     0     0 1003.72091    0  127  971.00000 1003.72091  3.37%     -    2s
     0     0 1003.65638    0  127  971.00000 1003.65638  3.36%     -    2s
     0     0 1003.64014    0  129  971.00000 1003.64014  3.36%     -    2s
     0     0 1003.25525    0  123  971.00000 1003.25525  3.32%     -    2s
     0     0 1003.22325    0  126  971.00000 1003.22325  3.32%     -    2s
     0     0 1003.18499    0  126  971.00000 1003.18499  3.31%     -    2s
H    0     0                     978.0000000 1003.18264  2.57%     -    2s
     0     2 1003.18264    0  126  978.00000 1003.18264  2.57%     -    2s
H  353   193                     981.0000000  997.09204  1.64%  29.1    4s
   375   205  988.02462    9  110  981.00000  997.05307  1.64%  30.8    5s

Cutting planes:
  Gomory: 3
  MIR: 9
  Zero half: 18

Explored 1440 nodes (44190 simplex iterations) in 9.80 seconds (2.71 work units)
Thread count was 1 (of 12 available processors)

Solution count 7: 981 978 971 ... 514

Optimal solution found (tolerance 1.00e-04)
Best objective 9.810000000000e+02, best bound 9.810000000000e+02, gap 0.0000%
